50
13006

205 804
253 612
633 861
429 610
217 998
78 254
265 287
798 416
259 966
401 431
380 805
236 70
152 564
443 706
679 163
911 529
618 131
928 598
642 172
806 783
948 458
998 687
29 600
652 994
187 605
745 796
142 675
972 611
864 118
310 264
675 68
417 636
37 884
651 725
72 730
577 529
494 694
226 113
110 317
83 998
722 772
416 482
360 545
679 89
625 947
435 100
662 931
203 606
564 125
657 740
